c Result of efficient AIG-to-CNF conversion using package CNF
p cnf 336 1178
-2 3 210 212 213 0
-2 3 -210 -212 213 0
2 -213 0
2 -210 212 0
2 -3 0
2 210 -212 0
3 4 -187 0
3 -4 187 0
-3 -4 -187 0
-3 4 187 0
4 -5 183 0
4 5 -183 0
-4 5 183 0
-4 -5 -183 0
5 -273 -6 0
5 -6 -126 0
5 -273 -126 0
-5 273 126 0
-5 6 126 0
-5 273 6 0
6 -7 123 0
6 7 -123 0
-6 7 123 0
-6 -7 -123 0
-7 8 120 0
7 -8 0
7 -120 0
-8 9 117 0
8 -9 0
8 -117 0
-9 10 114 0
9 -10 0
9 -114 0
-10 11 111 0
10 -11 0
10 -111 0
-11 12 108 0
11 -12 0
11 -108 0
-12 13 105 0
12 -13 0
12 -105 0
-13 14 102 0
13 -14 0
13 -102 0
-14 15 99 0
14 -15 0
14 -99 0
-15 16 96 0
15 -16 0
15 -96 0
-16 17 93 0
16 -17 0
16 -93 0
-17 18 90 0
17 -18 0
17 -90 0
-18 19 87 0
18 -19 0
18 -87 0
-19 20 84 0
19 -20 0
19 -84 0
-20 21 81 0
20 -21 0
20 -81 0
-21 22 78 0
21 -22 0
21 -78 0
-22 23 75 0
22 -23 0
22 -75 0
-23 24 72 0
23 -24 0
23 -72 0
-24 25 69 0
24 -25 0
24 -69 0
-25 26 66 0
25 -26 0
25 -66 0
-26 27 63 0
26 -27 0
26 -63 0
-27 28 60 0
27 -28 0
27 -60 0
-28 29 57 0
28 -29 0
28 -57 0
-29 30 54 0
29 -30 0
29 -54 0
-30 31 51 0
30 -31 0
30 -51 0
-31 32 48 0
31 -32 0
31 -48 0
-32 33 45 0
32 -33 0
32 -45 0
-33 34 42 0
33 -34 0
33 -42 0
-34 35 40 0
34 -35 0
34 -40 0
35 36 -37 0
35 -36 37 0
-35 -36 -37 0
-35 36 37 0
36 301 -333 0
36 -301 333 0
-36 -301 -333 0
-36 301 333 0
37 -38 -39 0
37 -303 -335 -38 0
-37 38 0
-37 335 39 0
-37 303 39 0
-38 302 334 0
38 -302 0
38 -334 0
39 -302 -334 0
-39 302 0
-39 334 0
40 -335 41 0
40 303 -41 0
40 -303 335 0
-40 -303 -335 -41 0
-40 303 335 41 0
41 302 -334 0
41 -302 334 0
-41 -302 -334 0
-41 302 334 0
42 43 -44 0
42 -43 44 0
-42 -43 -44 0
-42 43 44 0
43 300 -332 0
43 -300 332 0
-43 -300 -332 0
-43 300 332 0
44 -301 -333 0
44 -333 -37 0
44 -301 -37 0
-44 301 37 0
-44 333 37 0
-44 301 333 0
45 46 -47 0
45 -46 47 0
-45 -46 -47 0
-45 46 47 0
46 299 -331 0
46 -299 331 0
-46 -299 -331 0
-46 299 331 0
47 -300 -332 0
47 -332 -44 0
47 -300 -44 0
-47 300 44 0
-47 332 44 0
-47 300 332 0
48 49 -50 0
48 -49 50 0
-48 -49 -50 0
-48 49 50 0
49 298 -330 0
49 -298 330 0
-49 -298 -330 0
-49 298 330 0
50 -299 -331 0
50 -331 -47 0
50 -299 -47 0
-50 299 47 0
-50 331 47 0
-50 299 331 0
-51 -52 -53 0
-51 52 53 0
51 52 -53 0
51 -52 53 0
52 297 -329 0
52 -297 329 0
-52 -297 -329 0
-52 297 329 0
53 -298 -330 0
53 -330 -50 0
53 -298 -50 0
-53 298 50 0
-53 330 50 0
-53 298 330 0
-54 -55 -56 0
-54 55 56 0
54 55 -56 0
54 -55 56 0
55 296 -328 0
55 -296 328 0
-55 -296 -328 0
-55 296 328 0
56 -297 -329 0
56 -329 -53 0
56 -297 -53 0
-56 297 53 0
-56 329 53 0
-56 297 329 0
-57 -58 -59 0
-57 58 59 0
57 58 -59 0
57 -58 59 0
58 295 -327 0
58 -295 327 0
-58 -295 -327 0
-58 295 327 0
59 -296 -328 0
59 -328 -56 0
59 -296 -56 0
-59 296 56 0
-59 328 56 0
-59 296 328 0
-60 -61 -62 0
-60 61 62 0
60 61 -62 0
60 -61 62 0
61 294 -326 0
61 -294 326 0
-61 -294 -326 0
-61 294 326 0
62 -295 -327 0
62 -327 -59 0
62 -295 -59 0
-62 295 59 0
-62 327 59 0
-62 295 327 0
-63 -64 -65 0
-63 64 65 0
63 64 -65 0
63 -64 65 0
64 293 -325 0
64 -293 325 0
-64 -293 -325 0
-64 293 325 0
65 -294 -326 0
65 -326 -62 0
65 -294 -62 0
-65 294 62 0
-65 326 62 0
-65 294 326 0
-66 -67 -68 0
-66 67 68 0
66 67 -68 0
66 -67 68 0
67 292 -324 0
67 -292 324 0
-67 -292 -324 0
-67 292 324 0
68 -293 -325 0
68 -325 -65 0
68 -293 -65 0
-68 293 65 0
-68 325 65 0
-68 293 325 0
-69 -70 -71 0
-69 70 71 0
69 70 -71 0
69 -70 71 0
70 291 -323 0
70 -291 323 0
-70 -291 -323 0
-70 291 323 0
71 -292 -324 0
71 -324 -68 0
71 -292 -68 0
-71 292 68 0
-71 324 68 0
-71 292 324 0
-72 -73 -74 0
-72 73 74 0
72 73 -74 0
72 -73 74 0
73 290 -322 0
73 -290 322 0
-73 -290 -322 0
-73 290 322 0
74 -291 -323 0
74 -323 -71 0
74 -291 -71 0
-74 291 71 0
-74 323 71 0
-74 291 323 0
-75 -76 -77 0
-75 76 77 0
75 76 -77 0
75 -76 77 0
76 289 -321 0
76 -289 321 0
-76 -289 -321 0
-76 289 321 0
77 -290 -322 0
77 -322 -74 0
77 -290 -74 0
-77 290 74 0
-77 322 74 0
-77 290 322 0
-78 -79 -80 0
-78 79 80 0
78 79 -80 0
78 -79 80 0
79 288 -320 0
79 -288 320 0
-79 -288 -320 0
-79 288 320 0
80 -289 -321 0
80 -321 -77 0
80 -289 -77 0
-80 289 77 0
-80 321 77 0
-80 289 321 0
-81 -82 -83 0
-81 82 83 0
81 82 -83 0
81 -82 83 0
82 287 -319 0
82 -287 319 0
-82 -287 -319 0
-82 287 319 0
83 -288 -320 0
83 -320 -80 0
83 -288 -80 0
-83 288 80 0
-83 320 80 0
-83 288 320 0
-84 -85 -86 0
-84 85 86 0
84 85 -86 0
84 -85 86 0
85 286 -318 0
85 -286 318 0
-85 -286 -318 0
-85 286 318 0
86 -287 -319 0
86 -319 -83 0
86 -287 -83 0
-86 287 83 0
-86 319 83 0
-86 287 319 0
-87 -88 -89 0
-87 88 89 0
87 88 -89 0
87 -88 89 0
88 285 -317 0
88 -285 317 0
-88 -285 -317 0
-88 285 317 0
89 -286 -318 0
89 -318 -86 0
89 -286 -86 0
-89 286 86 0
-89 318 86 0
-89 286 318 0
-90 -91 -92 0
-90 91 92 0
90 91 -92 0
90 -91 92 0
91 284 -316 0
91 -284 316 0
-91 -284 -316 0
-91 284 316 0
92 -285 -317 0
92 -317 -89 0
92 -285 -89 0
-92 285 89 0
-92 317 89 0
-92 285 317 0
-93 -94 -95 0
-93 94 95 0
93 94 -95 0
93 -94 95 0
94 283 -315 0
94 -283 315 0
-94 -283 -315 0
-94 283 315 0
95 -284 -316 0
95 -316 -92 0
95 -284 -92 0
-95 284 92 0
-95 316 92 0
-95 284 316 0
-96 -97 -98 0
-96 97 98 0
96 97 -98 0
96 -97 98 0
97 282 -314 0
97 -282 314 0
-97 -282 -314 0
-97 282 314 0
98 -283 -315 0
98 -315 -95 0
98 -283 -95 0
-98 283 95 0
-98 315 95 0
-98 283 315 0
-99 -100 -101 0
-99 100 101 0
99 100 -101 0
99 -100 101 0
100 281 -313 0
100 -281 313 0
-100 -281 -313 0
-100 281 313 0
101 -282 -314 0
101 -314 -98 0
101 -282 -98 0
-101 282 98 0
-101 314 98 0
-101 282 314 0
-102 -103 -104 0
-102 103 104 0
102 103 -104 0
102 -103 104 0
103 280 -312 0
103 -280 312 0
-103 -280 -312 0
-103 280 312 0
104 -281 -313 0
104 -313 -101 0
104 -281 -101 0
-104 281 101 0
-104 313 101 0
-104 281 313 0
-105 -106 -107 0
-105 106 107 0
105 106 -107 0
105 -106 107 0
106 279 -311 0
106 -279 311 0
-106 -279 -311 0
-106 279 311 0
107 -280 -312 0
107 -312 -104 0
107 -280 -104 0
-107 280 104 0
-107 312 104 0
-107 280 312 0
-108 -109 -110 0
-108 109 110 0
108 109 -110 0
108 -109 110 0
109 278 -310 0
109 -278 310 0
-109 -278 -310 0
-109 278 310 0
110 -279 -311 0
110 -311 -107 0
110 -279 -107 0
-110 279 107 0
-110 311 107 0
-110 279 311 0
-111 -112 -113 0
-111 112 113 0
111 112 -113 0
111 -112 113 0
112 277 -309 0
112 -277 309 0
-112 -277 -309 0
-112 277 309 0
113 -278 -310 0
113 -310 -110 0
113 -278 -110 0
-113 278 110 0
-113 310 110 0
-113 278 310 0
-114 -115 -116 0
-114 115 116 0
114 115 -116 0
114 -115 116 0
115 276 -308 0
115 -276 308 0
-115 -276 -308 0
-115 276 308 0
116 -277 -309 0
116 -309 -113 0
116 -277 -113 0
-116 277 113 0
-116 309 113 0
-116 277 309 0
-117 -118 -119 0
-117 118 119 0
117 118 -119 0
117 -118 119 0
118 275 -307 0
118 -275 307 0
-118 -275 -307 0
-118 275 307 0
119 -276 -308 0
119 -308 -116 0
119 -276 -116 0
-119 276 116 0
-119 308 116 0
-119 276 308 0
-120 -121 -122 0
-120 121 122 0
120 121 -122 0
120 -121 122 0
121 274 -306 0
121 -274 306 0
-121 -274 -306 0
-121 274 306 0
122 -275 -307 0
122 -307 -119 0
122 -275 -119 0
-122 275 119 0
-122 307 119 0
-122 275 307 0
-123 -124 -125 0
-123 124 125 0
123 124 -125 0
123 -124 125 0
124 273 -305 0
124 -273 305 0
-124 -273 -305 0
-124 273 305 0
125 -274 -306 0
125 -306 -122 0
125 -274 -122 0
-125 274 122 0
-125 306 122 0
-125 274 306 0
126 -274 -127 0
126 -127 -128 0
126 -274 -128 0
-126 274 128 0
-126 127 128 0
-126 274 127 0
127 -8 120 0
127 8 -120 0
-127 8 120 0
-127 -8 -120 0
128 -275 -129 0
128 -129 -130 0
128 -275 -130 0
-128 275 130 0
-128 129 130 0
-128 275 129 0
129 -9 117 0
129 9 -117 0
-129 9 117 0
-129 -9 -117 0
130 -276 -131 0
130 -131 -132 0
130 -276 -132 0
-130 276 132 0
-130 131 132 0
-130 276 131 0
131 -10 114 0
131 10 -114 0
-131 10 114 0
-131 -10 -114 0
132 -277 -133 0
132 -133 -134 0
132 -277 -134 0
-132 277 134 0
-132 133 134 0
-132 277 133 0
133 -11 111 0
133 11 -111 0
-133 11 111 0
-133 -11 -111 0
134 -278 -135 0
134 -135 -136 0
134 -278 -136 0
-134 278 136 0
-134 135 136 0
-134 278 135 0
135 -12 108 0
135 12 -108 0
-135 12 108 0
-135 -12 -108 0
136 -279 -137 0
136 -137 -138 0
136 -279 -138 0
-136 279 138 0
-136 137 138 0
-136 279 137 0
137 -13 105 0
137 13 -105 0
-137 13 105 0
-137 -13 -105 0
138 -280 -139 0
138 -139 -140 0
138 -280 -140 0
-138 280 140 0
-138 139 140 0
-138 280 139 0
139 -14 102 0
139 14 -102 0
-139 14 102 0
-139 -14 -102 0
140 -281 -141 0
140 -141 -142 0
140 -281 -142 0
-140 281 142 0
-140 141 142 0
-140 281 141 0
141 -15 99 0
141 15 -99 0
-141 15 99 0
-141 -15 -99 0
142 -282 -143 0
142 -143 -144 0
142 -282 -144 0
-142 282 144 0
-142 143 144 0
-142 282 143 0
143 -16 96 0
143 16 -96 0
-143 16 96 0
-143 -16 -96 0
144 -283 -145 0
144 -145 -146 0
144 -283 -146 0
-144 283 146 0
-144 145 146 0
-144 283 145 0
145 -17 93 0
145 17 -93 0
-145 17 93 0
-145 -17 -93 0
146 -284 -147 0
146 -147 -148 0
146 -284 -148 0
-146 284 148 0
-146 147 148 0
-146 284 147 0
147 -18 90 0
147 18 -90 0
-147 18 90 0
-147 -18 -90 0
148 -285 -149 0
148 -149 -150 0
148 -285 -150 0
-148 285 150 0
-148 149 150 0
-148 285 149 0
149 -19 87 0
149 19 -87 0
-149 19 87 0
-149 -19 -87 0
150 -286 -151 0
150 -151 -152 0
150 -286 -152 0
-150 286 152 0
-150 151 152 0
-150 286 151 0
151 -20 84 0
151 20 -84 0
-151 20 84 0
-151 -20 -84 0
152 -287 -153 0
152 -153 -154 0
152 -287 -154 0
-152 287 154 0
-152 153 154 0
-152 287 153 0
153 -21 81 0
153 21 -81 0
-153 21 81 0
-153 -21 -81 0
154 -288 -155 0
154 -155 -156 0
154 -288 -156 0
-154 288 156 0
-154 155 156 0
-154 288 155 0
155 -22 78 0
155 22 -78 0
-155 22 78 0
-155 -22 -78 0
156 -289 -157 0
156 -157 -158 0
156 -289 -158 0
-156 289 158 0
-156 157 158 0
-156 289 157 0
157 -23 75 0
157 23 -75 0
-157 23 75 0
-157 -23 -75 0
158 -290 -159 0
158 -159 -160 0
158 -290 -160 0
-158 290 160 0
-158 159 160 0
-158 290 159 0
159 -24 72 0
159 24 -72 0
-159 24 72 0
-159 -24 -72 0
160 -291 -161 0
160 -161 -162 0
160 -291 -162 0
-160 291 162 0
-160 161 162 0
-160 291 161 0
161 -25 69 0
161 25 -69 0
-161 25 69 0
-161 -25 -69 0
162 -292 -163 0
162 -163 -164 0
162 -292 -164 0
-162 292 164 0
-162 163 164 0
-162 292 163 0
163 -26 66 0
163 26 -66 0
-163 26 66 0
-163 -26 -66 0
164 -293 -165 0
164 -165 -166 0
164 -293 -166 0
-164 293 166 0
-164 165 166 0
-164 293 165 0
165 -27 63 0
165 27 -63 0
-165 27 63 0
-165 -27 -63 0
166 -294 -167 0
166 -167 -168 0
166 -294 -168 0
-166 294 168 0
-166 167 168 0
-166 294 167 0
167 -28 60 0
167 28 -60 0
-167 28 60 0
-167 -28 -60 0
168 -295 -169 0
168 -169 -170 0
168 -295 -170 0
-168 295 170 0
-168 169 170 0
-168 295 169 0
169 -29 57 0
169 29 -57 0
-169 29 57 0
-169 -29 -57 0
170 -296 -171 0
170 -171 -172 0
170 -296 -172 0
-170 296 172 0
-170 171 172 0
-170 296 171 0
171 -30 54 0
171 30 -54 0
-171 30 54 0
-171 -30 -54 0
172 -297 -173 0
172 -173 -174 0
172 -297 -174 0
-172 297 174 0
-172 173 174 0
-172 297 173 0
173 -31 51 0
173 31 -51 0
-173 31 51 0
-173 -31 -51 0
174 -298 -175 0
174 -175 -176 0
174 -298 -176 0
-174 298 176 0
-174 175 176 0
-174 298 175 0
175 32 -48 0
175 -32 48 0
-175 -32 -48 0
-175 32 48 0
176 -299 -177 0
176 -177 -178 0
176 -299 -178 0
-176 299 178 0
-176 177 178 0
-176 299 177 0
177 33 -45 0
177 -33 45 0
-177 -33 -45 0
-177 33 45 0
178 -300 -179 0
178 -179 -180 0
178 -300 -180 0
-178 300 180 0
-178 179 180 0
-178 300 179 0
179 34 -42 0
179 -34 42 0
-179 -34 -42 0
-179 34 42 0
180 -301 -181 0
180 -181 -182 0
180 -301 -182 0
-180 301 182 0
-180 181 182 0
-180 301 181 0
181 35 -40 0
181 -35 40 0
-181 -35 -40 0
-181 35 40 0
182 -302 -334 -335 0
182 -303 334 335 0
182 -302 334 335 0
182 -302 -303 -334 0
-182 302 303 0
-182 302 -334 0
-182 334 -335 0
-182 303 -334 335 0
-183 184 185 0
-183 -184 -185 0
183 -184 185 0
183 184 -185 0
-184 7 123 0
184 -7 0
184 -123 0
-185 -304 -186 0
-185 304 186 0
185 304 -186 0
185 -304 186 0
186 -273 -305 0
186 -305 -125 0
186 -273 -125 0
-186 273 125 0
-186 305 125 0
-186 273 305 0
187 -304 188 0
187 304 -188 0
-187 304 188 0
-187 -304 -188 0
-188 305 189 0
188 -305 0
188 -189 0
-189 306 190 0
189 -306 0
189 -190 0
-190 307 191 0
190 -307 0
190 -191 0
-191 308 192 0
191 -308 0
191 -192 0
-192 309 193 0
192 -309 0
192 -193 0
-193 310 194 0
193 -310 0
193 -194 0
-194 311 195 0
194 -311 0
194 -195 0
-195 312 196 0
195 -312 0
195 -196 0
-196 313 197 0
196 -313 0
196 -197 0
-197 314 198 0
197 -314 0
197 -198 0
-198 315 199 0
198 -315 0
198 -199 0
-199 316 200 0
199 -316 0
199 -200 0
-200 317 201 0
200 -317 0
200 -201 0
-201 318 202 0
201 -318 0
201 -202 0
-202 319 203 0
202 -319 0
202 -203 0
-203 320 204 0
203 -320 0
203 -204 0
-204 321 205 0
204 -321 0
204 -205 0
-205 322 323 324 206 0
205 -206 0
205 -324 0
205 -322 0
205 -323 0
-206 325 326 327 207 0
206 -207 0
206 -327 0
206 -325 0
206 -326 0
-207 328 329 330 208 0
207 -208 0
207 -330 0
207 -328 0
207 -329 0
-208 331 332 333 209 0
208 -209 0
208 -333 0
208 -331 0
208 -332 0
-209 334 335 0
209 -334 0
209 -335 0
210 126 -211 0
210 -126 211 0
-210 -126 -211 0
-210 126 211 0
211 273 -6 0
211 -273 6 0
-211 -273 -6 0
-211 273 6 0
212 -305 189 0
212 305 -189 0
-212 305 189 0
-212 -305 -189 0
-213 214 216 217 221 0
-213 -214 -216 217 221 0
213 -217 0
213 214 -216 0
213 -221 0
213 -214 216 0
214 128 -215 0
214 -128 215 0
-214 -128 -215 0
-214 128 215 0
215 274 -127 0
215 -274 127 0
-215 -274 -127 0
-215 274 127 0
216 -306 190 0
216 306 -190 0
-216 306 190 0
-216 -306 -190 0
217 218 -220 0
217 -218 220 0
-217 -218 -220 0
-217 218 220 0
218 130 -219 0
218 -130 219 0
-218 -130 -219 0
-218 130 219 0
219 275 -129 0
219 -275 129 0
-219 -275 -129 0
-219 275 129 0
220 -307 191 0
220 307 -191 0
-220 307 191 0
-220 -307 -191 0
-221 222 224 225 229 0
-221 -222 -224 225 229 0
221 -225 0
221 222 -224 0
221 -229 0
221 -222 224 0
222 132 -223 0
222 -132 223 0
-222 -132 -223 0
-222 132 223 0
223 276 -131 0
223 -276 131 0
-223 -276 -131 0
-223 276 131 0
224 -308 192 0
224 308 -192 0
-224 308 192 0
-224 -308 -192 0
225 226 -228 0
225 -226 228 0
-225 -226 -228 0
-225 226 228 0
226 134 -227 0
226 -134 227 0
-226 -134 -227 0
-226 134 227 0
227 277 -133 0
227 -277 133 0
-227 -277 -133 0
-227 277 133 0
228 -309 193 0
228 309 -193 0
-228 309 193 0
-228 -309 -193 0
-229 230 232 233 237 0
-229 -230 -232 233 237 0
229 -233 0
229 230 -232 0
229 -237 0
229 -230 232 0
230 136 -231 0
230 -136 231 0
-230 -136 -231 0
-230 136 231 0
231 278 -135 0
231 -278 135 0
-231 -278 -135 0
-231 278 135 0
232 -310 194 0
232 310 -194 0
-232 310 194 0
-232 -310 -194 0
233 234 -236 0
233 -234 236 0
-233 -234 -236 0
-233 234 236 0
234 138 -235 0
234 -138 235 0
-234 -138 -235 0
-234 138 235 0
235 279 -137 0
235 -279 137 0
-235 -279 -137 0
-235 279 137 0
236 -311 195 0
236 311 -195 0
-236 311 195 0
-236 -311 -195 0
-237 238 240 241 245 0
-237 -238 -240 241 245 0
237 -241 0
237 238 -240 0
237 -245 0
237 -238 240 0
238 140 -239 0
238 -140 239 0
-238 -140 -239 0
-238 140 239 0
239 280 -139 0
239 -280 139 0
-239 -280 -139 0
-239 280 139 0
240 -312 196 0
240 312 -196 0
-240 312 196 0
-240 -312 -196 0
241 242 -244 0
241 -242 244 0
-241 -242 -244 0
-241 242 244 0
242 142 -243 0
242 -142 243 0
-242 -142 -243 0
-242 142 243 0
243 281 -141 0
243 -281 141 0
-243 -281 -141 0
-243 281 141 0
244 -313 197 0
244 313 -197 0
-244 313 197 0
-244 -313 -197 0
-245 246 248 249 253 0
-245 -246 -248 249 253 0
245 -249 0
245 246 -248 0
245 -253 0
245 -246 248 0
246 144 -247 0
246 -144 247 0
-246 -144 -247 0
-246 144 247 0
247 282 -143 0
247 -282 143 0
-247 -282 -143 0
-247 282 143 0
248 -314 198 0
248 314 -198 0
-248 314 198 0
-248 -314 -198 0
249 250 -252 0
249 -250 252 0
-249 -250 -252 0
-249 250 252 0
250 146 -251 0
250 -146 251 0
-250 -146 -251 0
-250 146 251 0
251 283 -145 0
251 -283 145 0
-251 -283 -145 0
-251 283 145 0
252 -315 199 0
252 315 -199 0
-252 315 199 0
-252 -315 -199 0
-253 254 256 257 261 0
-253 -254 -256 257 261 0
253 -257 0
253 254 -256 0
253 -261 0
253 -254 256 0
254 148 -255 0
254 -148 255 0
-254 -148 -255 0
-254 148 255 0
255 284 -147 0
255 -284 147 0
-255 -284 -147 0
-255 284 147 0
256 -316 200 0
256 316 -200 0
-256 316 200 0
-256 -316 -200 0
257 258 -260 0
257 -258 260 0
-257 -258 -260 0
-257 258 260 0
258 150 -259 0
258 -150 259 0
-258 -150 -259 0
-258 150 259 0
259 285 -149 0
259 -285 149 0
-259 -285 -149 0
-259 285 149 0
260 -317 201 0
260 317 -201 0
-260 317 201 0
-260 -317 -201 0
-261 -262 -264 265 0
-261 262 264 265 0
261 -265 0
261 -262 264 0
261 262 -264 0
262 152 -263 0
262 -152 263 0
-262 -152 -263 0
-262 152 263 0
263 286 -151 0
263 -286 151 0
-263 -286 -151 0
-263 286 151 0
264 -318 202 0
264 318 -202 0
-264 318 202 0
-264 -318 -202 0
-265 266 268 -269 -271 0
-265 -266 -268 -269 -271 0
-265 266 268 269 271 0
-265 -266 -268 269 271 0
265 266 -268 0
265 -266 268 0
265 269 -271 0
265 -269 271 0
266 154 -267 0
266 -154 267 0
-266 -154 -267 0
-266 154 267 0
267 287 -153 0
267 -287 153 0
-267 -287 -153 0
-267 287 153 0
268 -319 203 0
268 319 -203 0
-268 319 203 0
-268 -319 -203 0
269 158 -270 0
269 -158 270 0
-269 -158 -270 0
-269 158 270 0
270 289 -157 0
270 -289 157 0
-270 -289 -157 0
-270 289 157 0
271 -321 205 0
271 321 -205 0
-271 321 205 0
-271 -321 -205 0
-336 0
2 0

